NAME          
ROWS
 N  OBJ
 L  c1
 L  c2
 L  c3
COLUMNS
    MARKER    'MARKER'                 'INTORG'
    x[1]      c1        379
    x[1]      c2        490
    x[1]      c3        903
    x[1]      OBJ       -655
    x[2]      c1        198
    x[2]      c2        125
    x[2]      c3        269
    x[2]      OBJ       -706
    x[3]      c1        588
    x[3]      c2        305
    x[3]      c3        182
    x[3]      OBJ       -20
    x[4]      c1        667
    x[4]      c2        405
    x[4]      c3        627
    x[4]      OBJ       -102
    x[5]      c1        562
    x[5]      c2        277
    x[5]      c3        218
    x[5]      OBJ       -451
    x[6]      c1        435
    x[6]      c2        415
    x[6]      c3        307
    x[6]      OBJ       -460
    x[7]      c1        25
    x[7]      c2        79
    x[7]      c3        56
    x[7]      OBJ       -905
    x[8]      c1        456
    x[8]      c2        490
    x[8]      c3        395
    x[8]      OBJ       -377
    x[9]      c1        23
    x[9]      c2        629
    x[9]      c3        776
    x[9]      OBJ       -659
    x[10]     c1        300
    x[10]     c2        921
    x[10]     c3        401
    x[10]     OBJ       -858
    x[11]     c1        653
    x[11]     c2        130
    x[11]     c3        457
    x[11]     OBJ       -588
    x[12]     c1        93
    x[12]     c2        542
    x[12]     c3        231
    x[12]     OBJ       -740
    x[13]     c1        117
    x[13]     c2        468
    x[13]     c3        248
    x[13]     OBJ       -502
    x[14]     c1        727
    x[14]     c2        45
    x[14]     c3        416
    x[14]     OBJ       -985
    x[15]     c1        463
    x[15]     c2        546
    x[15]     c3        912
    x[15]     OBJ       -734
    x[16]     c1        261
    x[16]     c2        353
    x[16]     c3        212
    x[16]     OBJ       -900
    x[17]     c1        333
    x[17]     c2        405
    x[17]     c3        360
    x[17]     OBJ       -343
    x[18]     c1        262
    x[18]     c2        378
    x[18]     c3        897
    x[18]     OBJ       -878
    x[19]     c1        69
    x[19]     c2        841
    x[19]     c3        943
    x[19]     OBJ       -786
    x[20]     c1        902
    x[20]     c2        204
    x[20]     c3        729
    x[20]     OBJ       -23
    x[21]     c1        879
    x[21]     c2        66
    x[21]     c3        149
    x[21]     OBJ       -164
    x[22]     c1        322
    x[22]     c2        298
    x[22]     c3        170
    x[22]     OBJ       -588
    x[23]     c1        436
    x[23]     c2        829
    x[23]     c3        560
    x[23]     OBJ       -390
    x[24]     c1        393
    x[24]     c2        169
    x[24]     c3        562
    x[24]     OBJ       -960
    x[25]     c1        34
    x[25]     c2        543
    x[25]     c3        499
    x[25]     OBJ       -216
    x[26]     c1        83
    x[26]     c2        456
    x[26]     c3        707
    x[26]     OBJ       -274
    x[27]     c1        677
    x[27]     c2        950
    x[27]     c3        839
    x[27]     OBJ       -770
    x[28]     c1        473
    x[28]     c2        268
    x[28]     c3        809
    x[28]     OBJ       -100
    x[29]     c1        907
    x[29]     c2        923
    x[29]     c3        736
    x[29]     OBJ       -210
    x[30]     c1        216
    x[30]     c2        211
    x[30]     c3        249
    x[30]     OBJ       -508
RHS
    rhs       c1        5966
    rhs       c2        6380
    rhs       c3        7410
RANGES
BOUNDS
 LO bounds    x[1]      0
 PL bounds    x[1]
 LO bounds    x[2]      0
 PL bounds    x[2]
 LO bounds    x[3]      0
 PL bounds    x[3]
 LO bounds    x[4]      0
 PL bounds    x[4]
 LO bounds    x[5]      0
 PL bounds    x[5]
 LO bounds    x[6]      0
 PL bounds    x[6]
 LO bounds    x[7]      0
 PL bounds    x[7]
 LO bounds    x[8]      0
 PL bounds    x[8]
 LO bounds    x[9]      0
 PL bounds    x[9]
 LO bounds    x[10]     0
 PL bounds    x[10]
 LO bounds    x[11]     0
 PL bounds    x[11]
 LO bounds    x[12]     0
 PL bounds    x[12]
 LO bounds    x[13]     0
 PL bounds    x[13]
 LO bounds    x[14]     0
 PL bounds    x[14]
 LO bounds    x[15]     0
 PL bounds    x[15]
 LO bounds    x[16]     0
 PL bounds    x[16]
 LO bounds    x[17]     0
 PL bounds    x[17]
 LO bounds    x[18]     0
 PL bounds    x[18]
 LO bounds    x[19]     0
 PL bounds    x[19]
 LO bounds    x[20]     0
 PL bounds    x[20]
 LO bounds    x[21]     0
 PL bounds    x[21]
 LO bounds    x[22]     0
 PL bounds    x[22]
 LO bounds    x[23]     0
 PL bounds    x[23]
 LO bounds    x[24]     0
 PL bounds    x[24]
 LO bounds    x[25]     0
 PL bounds    x[25]
 LO bounds    x[26]     0
 PL bounds    x[26]
 LO bounds    x[27]     0
 PL bounds    x[27]
 LO bounds    x[28]     0
 PL bounds    x[28]
 LO bounds    x[29]     0
 PL bounds    x[29]
 LO bounds    x[30]     0
 PL bounds    x[30]
ENDATA
